nK = 647;
nT = 4;
nI = 7;
L = 29;
TT = 181;
np = 1;
nc = 3;
b = [29, 59, 39, 42, 61, 67, 49];
d = [105, 119, 149, 63, 108, 129, 127];
m = [1.9, 2.2, 2.2, 2, 2, 2.5, 2.5];
pt = [0.33, 0.31, 0.26, 0.33];
st = [15.84, 14.26, 12.74, 17.49];
arc = {<1, 0, 1, 1, 0, 0, 0, [1, 1, 1, 1]>, <2, 1, 2, 1, 0, 0, 0, [1, 1, 1, 1]>, <3, 2, 3, 1, 0, 0, 0, [1, 1, 1, 1]>, <4, 3, 4, 1, 0, 0, 0, [1, 1, 1, 1]>, <5, 4, 5, 1, 0, 0, 0, [1, 1, 1, 1]>, <6, 5, 6, 1, 0, 0, 0, [1, 1, 1, 1]>, <7, 6, 7, 1, 0, 0, 0, [1, 1, 1, 1]>, <8, 7, 8, 1, 0, 0, 0, [1, 1, 1, 1]>, <9, 8, 9, 1, 0, 0, 0, [1, 1, 1, 1]>, <10, 9, 10, 1, 0, 0, 0, [1, 1, 1, 1]>, <11, 10, 11, 1, 0, 0, 0, [1, 1, 1, 1]>, <12, 11, 12, 1, 0, 0, 0, [1, 1, 1, 1]>, <13, 12, 13, 1, 0, 0, 0, [1, 1, 1, 1]>, <14, 13, 14, 1, 0, 0, 0, [1, 1, 1, 1]>, <15, 14, 15, 1, 0, 0, 0, [1, 1, 1, 1]>, <16, 15, 16, 1, 0, 0, 0, [1, 1, 1, 1]>, <17, 16, 17, 1, 0, 0, 0, [1, 1, 1, 1]>, <18, 17, 18, 1, 0, 0, 0, [1, 1, 1, 1]>, <19, 18, 19, 1, 0, 0, 0, [1, 1, 1, 1]>, <20, 19, 20, 1, 0, 0, 0, [1, 1, 1, 1]>, <21, 20, 21, 1, 0, 0, 0, [1, 1, 1, 1]>, <22, 21, 22, 1, 0, 0, 0, [1, 1, 1, 1]>, <23, 22, 23, 1, 0, 0, 0, [1, 1, 1, 1]>, <24, 23, 24, 1, 0, 0, 0, [1, 1, 1, 1]>, <25, 24, 25, 1, 0, 0, 0, [1, 1, 1, 1]>, <26, 25, 26, 1, 0, 0, 0, [1, 1, 1, 1]>, <27, 26, 27, 1, 0, 0, 0, [1, 1, 1, 1]>, <28, 27, 28, 1, 0, 0, 0, [1, 1, 1, 1]>, <29, 28, 29, 1, 0, 0, 0, [1, 1, 1, 1]>, <30, 0, 15, 15, 1, 0, 0, [1, 1, 0, 0]>, <31, 1, 16, 15, 1, 0, 0, [1, 1, 0, 0]>, <32, 2, 17, 15, 1, 0, 0, [1, 1, 0, 0]>, <33, 3, 18, 15, 1, 0, 0, [1, 1, 0, 0]>, <34, 4, 19, 15, 1, 0, 0, [1, 1, 0, 0]>, <35, 5, 20, 15, 1, 0, 0, [1, 1, 0, 0]>, <36, 6, 21, 15, 1, 0, 0, [1, 1, 0, 0]>, <37, 7, 22, 15, 1, 0, 0, [1, 1, 0, 0]>, <38, 8, 23, 15, 1, 0, 0, [1, 1, 0, 0]>, <39, 9, 24, 15, 1, 0, 0, [1, 1, 0, 0]>, <40, 10, 25, 15, 1, 0, 0, [1, 1, 0, 0]>, <41, 11, 26, 15, 1, 0, 0, [1, 1, 0, 0]>, <42, 12, 27, 15, 1, 0, 0, [1, 1, 0, 0]>, <43, 13, 28, 15, 1, 0, 0, [1, 1, 0, 0]>, <44, 14, 29, 15, 1, 0, 0, [1, 1, 0, 0]>, <45, 0, 12, 12, 2, 0, 0, [0, 1, 1, 0]>, <46, 1, 13, 12, 2, 0, 0, [0, 1, 1, 0]>, <47, 2, 14, 12, 2, 0, 0, [0, 1, 1, 0]>, <48, 3, 15, 12, 2, 0, 0, [0, 1, 1, 0]>, <49, 4, 16, 12, 2, 0, 0, [0, 1, 1, 0]>, <50, 5, 17, 12, 2, 0, 0, [0, 1, 1, 0]>, <51, 8, 20, 12, 2, 0, 0, [0, 1, 1, 0]>, <52, 9, 21, 12, 2, 0, 0, [0, 1, 1, 0]>, <53, 10, 22, 12, 2, 0, 0, [0, 1, 1, 0]>, <54, 11, 23, 12, 2, 0, 0, [0, 1, 1, 0]>, <55, 12, 24, 12, 2, 0, 0, [0, 1, 1, 0]>, <56, 13, 25, 12, 2, 0, 0, [0, 1, 1, 0]>, <57, 14, 26, 12, 2, 0, 0, [0, 1, 1, 0]>, <58, 15, 27, 12, 2, 0, 0, [0, 1, 1, 0]>, <59, 16, 28, 12, 2, 0, 0, [0, 1, 1, 0]>, <60, 17, 29, 12, 2, 0, 0, [0, 1, 1, 0]>, <61, 0, 13, 13, 3, 0, 0, [1, 1, 0, 0]>, <62, 1, 14, 13, 3, 0, 0, [1, 1, 0, 0]>, <63, 2, 15, 13, 3, 0, 0, [1, 1, 0, 0]>, <64, 3, 16, 13, 3, 0, 0, [1, 1, 0, 0]>, <65, 4, 17, 13, 3, 0, 0, [1, 1, 0, 0]>, <66, 5, 18, 13, 3, 0, 0, [1, 1, 0, 0]>, <67, 7, 20, 13, 3, 0, 0, [1, 1, 0, 0]>, <68, 8, 21, 13, 3, 0, 0, [1, 1, 0, 0]>, <69, 9, 22, 13, 3, 0, 0, [1, 1, 0, 0]>, <70, 10, 23, 13, 3, 0, 0, [1, 1, 0, 0]>, <71, 11, 24, 13, 3, 0, 0, [1, 1, 0, 0]>, <72, 12, 25, 13, 3, 0, 0, [1, 1, 0, 0]>, <73, 13, 26, 13, 3, 0, 0, [1, 1, 0, 0]>, <74, 14, 27, 13, 3, 0, 0, [1, 1, 0, 0]>, <75, 15, 28, 13, 3, 0, 0, [1, 1, 0, 0]>, <76, 16, 29, 13, 3, 0, 0, [1, 1, 0, 0]>, <77, 0, 13, 13, 4, 0, 1, [1, 0, 0, 1]>, <78, 1, 14, 13, 4, 0, 1, [1, 0, 0, 1]>, <79, 2, 15, 13, 4, 0, 1, [1, 0, 0, 1]>, <80, 3, 16, 13, 4, 0, 1, [1, 0, 0, 1]>, <81, 4, 17, 13, 4, 0, 1, [1, 0, 0, 1]>, <82, 5, 18, 13, 4, 0, 1, [1, 0, 0, 1]>, <83, 7, 20, 13, 4, 0, 1, [1, 0, 0, 1]>, <84, 8, 21, 13, 4, 0, 1, [1, 0, 0, 1]>, <85, 9, 22, 13, 4, 0, 1, [1, 0, 0, 1]>, <86, 10, 23, 13, 4, 0, 1, [1, 0, 0, 1]>, <87, 11, 24, 13, 4, 0, 1, [1, 0, 0, 1]>, <88, 12, 25, 13, 4, 0, 1, [1, 0, 0, 1]>, <89, 13, 26, 13, 4, 0, 1, [1, 0, 0, 1]>, <90, 14, 27, 13, 4, 0, 1, [1, 0, 0, 1]>, <91, 15, 28, 13, 4, 0, 1, [1, 0, 0, 1]>, <92, 16, 29, 13, 4, 0, 1, [1, 0, 0, 1]>, <93, 1, 12, 11, 5, 0, 1, [1, 1, 0, 0]>, <94, 2, 13, 11, 5, 0, 1, [1, 1, 0, 0]>, <95, 3, 14, 11, 5, 0, 1, [1, 1, 0, 0]>, <96, 4, 15, 11, 5, 0, 1, [1, 1, 0, 0]>, <97, 5, 16, 11, 5, 0, 1, [1, 1, 0, 0]>, <98, 9, 20, 11, 5, 0, 1, [1, 1, 0, 0]>, <99, 10, 21, 11, 5, 0, 1, [1, 1, 0, 0]>, <100, 11, 22, 11, 5, 0, 1, [1, 1, 0, 0]>, <101, 12, 23, 11, 5, 0, 1, [1, 1, 0, 0]>, <102, 13, 24, 11, 5, 0, 1, [1, 1, 0, 0]>, <103, 14, 25, 11, 5, 0, 1, [1, 1, 0, 0]>, <104, 15, 26, 11, 5, 0, 1, [1, 1, 0, 0]>, <105, 16, 27, 11, 5, 0, 1, [1, 1, 0, 0]>, <106, 17, 28, 11, 5, 0, 1, [1, 1, 0, 0]>, <107, 18, 29, 11, 5, 0, 1, [1, 1, 0, 0]>, <108, 0, 13, 13, 6, 1, 0, [1, 0, 0, 1]>, <109, 1, 14, 13, 6, 1, 0, [1, 0, 0, 1]>, <110, 2, 15, 13, 6, 1, 0, [1, 0, 0, 1]>, <111, 3, 16, 13, 6, 1, 0, [1, 0, 0, 1]>, <112, 4, 17, 13, 6, 1, 0, [1, 0, 0, 1]>, <113, 5, 18, 13, 6, 1, 0, [1, 0, 0, 1]>, <114, 7, 20, 13, 6, 1, 0, [1, 0, 0, 1]>, <115, 8, 21, 13, 6, 1, 0, [1, 0, 0, 1]>, <116, 9, 22, 13, 6, 1, 0, [1, 0, 0, 1]>, <117, 10, 23, 13, 6, 1, 0, [1, 0, 0, 1]>, <118, 11, 24, 13, 6, 1, 0, [1, 0, 0, 1]>, <119, 12, 25, 13, 6, 1, 0, [1, 0, 0, 1]>, <120, 13, 26, 13, 6, 1, 0, [1, 0, 0, 1]>, <121, 14, 27, 13, 6, 1, 0, [1, 0, 0, 1]>, <122, 15, 28, 13, 6, 1, 0, [1, 0, 0, 1]>, <123, 16, 29, 13, 6, 1, 0, [1, 0, 0, 1]>, <124, 0, 15, 15, 7, 0, 0, [1, 0, 0, 1]>, <125, 1, 16, 15, 7, 0, 0, [1, 0, 0, 1]>, <126, 2, 17, 15, 7, 0, 0, [1, 0, 0, 1]>, <127, 3, 18, 15, 7, 0, 0, [1, 0, 0, 1]>, <128, 4, 19, 15, 7, 0, 0, [1, 0, 0, 1]>, <129, 5, 20, 15, 7, 0, 0, [1, 0, 0, 1]>, <130, 6, 21, 15, 7, 0, 0, [1, 0, 0, 1]>, <131, 7, 22, 15, 7, 0, 0, [1, 0, 0, 1]>, <132, 8, 23, 15, 7, 0, 0, [1, 0, 0, 1]>, <133, 9, 24, 15, 7, 0, 0, [1, 0, 0, 1]>, <134, 10, 25, 15, 7, 0, 0, [1, 0, 0, 1]>, <135, 11, 26, 15, 7, 0, 0, [1, 0, 0, 1]>, <136, 12, 27, 15, 7, 0, 0, [1, 0, 0, 1]>, <137, 13, 28, 15, 7, 0, 0, [1, 0, 0, 1]>, <138, 14, 29, 15, 7, 0, 0, [1, 0, 0, 1]>};
